$molecule
0 1
H      5.766133   -2.799480   -2.516382
C      5.833987   -3.885600   -2.589207
C      4.849101   -4.591167   -3.284972
C      4.917696   -5.982352   -3.389880
C      5.987529   -6.619127   -2.783547
C      6.983509   -5.935157   -2.083046
C      6.904531   -4.547131   -1.985006
S      6.288339   -8.385018   -2.782673
C      7.785956   -8.184132   -1.817327
C      8.019603   -6.836718   -1.526209
C      9.144455   -6.497341   -0.780932
C     10.006251   -7.511938   -0.345848
C      9.750923   -8.850714   -0.649689
C      8.623915   -9.201906   -1.397682
O      6.609332   -8.846743   -4.121123
O      5.274770   -9.073133   -2.003667
H      4.159694   -6.553193   -3.928384
H     10.448393   -9.608081   -0.290782
H      8.408879  -10.242687   -1.644309
H      9.371558   -5.459577   -0.527088
H      4.021991   -4.052665   -3.748867
H      7.665981   -3.982166   -1.445029
N     11.167676   -7.190418    0.420585
C     12.304849   -6.724482   -0.280882
C     13.537641   -6.575823    0.380940
S     13.733986   -7.148671    2.042848
C     12.106519   -6.816806    2.651021
C     10.991086   -6.945794    1.803048
C     12.248314   -6.410652   -1.646156
C     13.378099   -5.952576   -2.323047
C     14.582305   -5.773801   -1.651825
C     14.651394   -6.081709   -0.294319
C     11.940542   -6.538229    4.005794
C     10.666167   -6.433441    4.560234
C      9.557644   -6.596315    3.737279
C      9.714673   -6.837661    2.372907
H     11.318557   -6.539488   -2.197333
H      8.828443   -6.959376    1.752727
H     13.302020   -5.729141   -3.387934
H     15.585743   -5.960492    0.256751
H     12.829409   -6.424603    4.629000
H      8.550160   -6.529937    4.149916
H     15.464945   -5.406182   -2.175385
H     10.547261   -6.234518    5.625410
$end

$rem
JOBTYPE         SP
METHOD          PBE0
BASIS           6-31G*
SCF_PRINT       TRUE
$end

